Speck32/MILP/sol/6Round_317.sol
# Objective value = 16.0
pro0Rd0 1.0
pro1Rd0 1.0000000000000004
pro2Rd0 2.5673907444456745e-16
pro3Rd0 1.0000000000000007
pro4Rd0 0.0
pro5Rd0 1.0
pro6Rd0 -0.0
pro7Rd0 -3.7470027081099033e-16
pro8Rd0 6.938893903907228e-18
pro9Rd0 -0.0
pro10Rd0 1.0
pro11Rd0 1.0
pro12Rd0 1.0
pro13Rd0 -1.1102230246251565e-16
pro14Rd0 -7.494005416219807e-16
pro0Rd1 6.938893903907228e-18
pro1Rd1 0.0
pro2Rd1 -1.1102230246251565e-16
pro3Rd1 -0.0
pro4Rd1 -0.0
pro5Rd1 8.881784197001252e-16
pro6Rd1 -3.3306690738754696e-16
pro7Rd1 -1.3322676295501878e-15
pro8Rd1 1.0
pro9Rd1 -7.494005416219807e-16
pro10Rd1 1.0000000000000009
pro11Rd1 -2.220446049250313e-16
pro12Rd1 -1.3322676295501878e-15
pro13Rd1 -2.220446049250313e-16
pro14Rd1 -0.0
pro0Rd2 -0.0
pro1Rd2 -7.494005416219807e-16
pro2Rd2 -1.2878587085651816e-14
pro3Rd2 -2.220446049250313e-15
pro4Rd2 -2.220446049250313e-16
pro5Rd2 -1.1102230246251565e-16
pro6Rd2 -0.0
pro7Rd2 -1.1102230246251565e-16
pro8Rd2 -0.0
pro9Rd2 -0.0
pro10Rd2 -0.0
pro11Rd2 0.0
pro12Rd2 -1.9984014443252818e-15
pro13Rd2 0.0
pro14Rd2 0.0
pro0Rd3 -9.769962616701378e-15
pro1Rd3 -9.769962616701378e-15
pro2Rd3 -9.769962616701378e-15
pro3Rd3 -3.552713678800501e-15
pro4Rd3 -0.0
pro5Rd3 -0.0
pro6Rd3 1.0
pro7Rd3 -0.0
pro8Rd3 0.0
pro9Rd3 -6.439293542825908e-15
pro10Rd3 -0.0
pro11Rd3 2.220446049250313e-15
pro12Rd3 -4.440892098500626e-15
pro13Rd3 -0.0
pro14Rd3 -0.0
pro0Rd4 4.263256414560601e-14
pro1Rd4 -0.0
pro2Rd4 1.1102230246251565e-15
pro3Rd4 2.220446049250313e-15
pro4Rd4 -2.220446049250313e-15
pro5Rd4 9.769962616701378e-15
pro6Rd4 0.9999999999999902
pro7Rd4 1.0658141036401503e-14
pro8Rd4 -4.218847493575595e-15
pro9Rd4 -0.0
pro10Rd4 -1.4988010832439613e-15
pro11Rd4 2.220446049250313e-15
pro12Rd4 2.220446049250313e-15
pro13Rd4 1.0
pro14Rd4 -0.0
pro0Rd5 0.0
pro1Rd5 -2.9976021664879227e-15
pro2Rd5 -0.0
pro3Rd5 2.220446049250313e-15
pro4Rd5 1.0
pro5Rd5 9.769962616701378e-15
pro6Rd5 0.9999999999999769
pro7Rd5 1.3322676295501878e-14
pro8Rd5 -0.0
pro9Rd5 0.0
pro10Rd5 -7.494005416219807e-16
pro11Rd5 0.9999999999999976
pro12Rd5 4.6629367034256575e-15
pro13Rd5 1.0
pro14Rd5 1.0658141036401503e-14
p0 -4.440892098500626e-16
p1 -3.7470027081099033e-16
p2 6.938893903907228e-18
p3 1.3322676295501878e-15
p4 1.0
p5 1.0
p6 1.0
p7 -0.0
p8 -1.7763568394002505e-15
p9 -0.0
p10 0.9999999999999988
p11 1.0000000000000009
p12 -5.134781488891349e-16
p13 -4.440892098500626e-16
p14 -0.0
p15 1.0000000000000009
p16 -0.0
p17 -0.0
p18 -5.134781488891349e-16
p19 -1.0269562977782698e-15
p20 1.0
p21 -0.0
p22 1.0
p23 -4.440892098500626e-16
p24 -7.494005416219807e-16
p25 1.3877787807814457e-17
p26 8.881784197001252e-16
p27 -0.0
p28 -0.0
p29 1.0
p30 -1.1102230246251565e-16
p31 -7.494005416219807e-16
p0Rd1 -3.3306690738754696e-16
p16Rd1 -2.220446049250313e-16
temp0Rnd0 -5.134781488891349e-16
p1Rd1 -1.2212453270876722e-15
p17Rd1 -2.220446049250313e-16
temp1Rnd0 -1.0269562977782698e-15
p2Rd1 1.0
p18Rd1 0.0
temp2Rnd0 1.0
p3Rd1 -7.494005416219807e-16
p19Rd1 -1.1102230246251565e-16
temp3Rnd0 -4.440892098500626e-16
p4Rd1 1.0
p20Rd1 -0.0
temp4Rnd0 1.0
p5Rd1 -4.440892098500626e-16
p21Rd1 -0.0
temp5Rnd0 -4.440892098500626e-16
p6Rd1 -7.494005416219807e-16
p22Rd1 0.0
temp6Rnd0 -7.494005416219807e-16
p7Rd1 -4.440892098500626e-16
p23Rd1 -4.440892098500626e-16
temp7Rnd0 -4.440892098500626e-16
p8Rd1 0.0
p24Rd1 8.881784197001252e-16
temp8Rnd0 8.881784197001252e-16
p9Rd1 -0.0
p25Rd1 -0.0
temp9Rnd0 0.0
p10Rd1 -1.1102230246251565e-16
p26Rd1 2.220446049250313e-16
temp10Rnd0 0.0
p11Rd1 0.0
p27Rd1 1.0
temp11Rnd0 1.0
p12Rd1 -1.1102230246251565e-16
p28Rd1 0.0
temp12Rnd0 -1.1102230246251565e-16
p13Rd1 -0.0
p29Rd1 -7.494005416219807e-16
temp13Rnd0 -7.494005416219807e-16
p14Rd1 -0.0
p30Rd1 -2.220446049250313e-16
temp14Rnd0 -1.1102230246251565e-16
p15Rd1 8.881784197001252e-16
p31Rd1 -0.0
temp15Rnd0 4.440892098500626e-16
temp0 -7.494005416219807e-16
p0Rd2 0.0
p16Rd2 -0.0
temp0Rnd1 -0.0
p1Rd2 -1.1102230246251565e-16
p17Rd2 0.0
temp1Rnd1 -1.1102230246251565e-16
p2Rd2 -0.0
p18Rd2 0.0
temp2Rnd1 0.0
p3Rd2 0.0
p19Rd2 0.0
temp3Rnd1 -0.0
p4Rd2 -0.0
p20Rd2 0.0
temp4Rnd1 -0.0
p5Rd2 -0.0
p21Rd2 -4.440892098500626e-16
temp5Rnd1 -4.440892098500626e-16
p6Rd2 8.881784197001252e-16
p22Rd2 -1.1102230246251565e-16
temp6Rnd1 8.881784197001252e-16
p7Rd2 -0.0
p23Rd2 0.0
temp7Rnd1 -0.0
p8Rd2 0.0
p24Rd2 -1.1102230246251565e-16
temp8Rnd1 0.0
p9Rd2 1.0
p25Rd2 0.0
temp9Rnd1 1.0
p10Rd2 0.0
p26Rd2 0.0
temp10Rnd1 0.0
p11Rd2 -7.494005416219807e-16
p27Rd2 -0.0
temp11Rnd1 -7.494005416219807e-16
p12Rd2 -2.220446049250313e-16
p28Rd2 -0.0
temp12Rnd1 -2.220446049250313e-16
p13Rd2 -1.9984014443252818e-15
p29Rd2 -1.9984014443252818e-15
temp13Rnd1 -1.9984014443252818e-15
p14Rd2 -2.220446049250313e-16
p30Rd2 -0.0
temp14Rnd1 -2.220446049250313e-16
p15Rd2 -0.0
p31Rd2 0.0
temp15Rnd1 0.0
temp1 0.0
p0Rd3 1.0
p16Rd3 1.0
temp0Rnd2 1.0
p1Rd3 0.0
p17Rd3 0.0
temp1Rnd2 0.0
p2Rd3 -0.0
p18Rd3 0.0
temp2Rnd2 -0.0
p3Rd3 -1.2878587085651816e-14
p19Rd3 -1.3322676295501878e-14
temp3Rnd2 -1.3322676295501878e-14
p4Rd3 -2.220446049250313e-15
p20Rd3 -6.439293542825908e-15
temp4Rnd2 -6.439293542825908e-15
p5Rd3 0.0
p21Rd3 0.0
temp5Rnd2 0.0
p6Rd3 -1.1102230246251565e-16
p22Rd3 -0.0
temp6Rnd2 -1.1102230246251565e-16
p7Rd3 -0.0
p23Rd3 0.0
temp7Rnd2 0.0
p8Rd3 -0.0
p24Rd3 0.0
temp8Rnd2 0.0
p9Rd3 0.0
p25Rd3 0.0
temp9Rnd2 0.0
p10Rd3 0.0
p26Rd3 0.0
temp10Rnd2 0.0
p11Rd3 0.0
p27Rd3 -1.9984014443252818e-15
temp11Rnd2 -1.9984014443252818e-15
p12Rd3 -0.0
p28Rd3 -0.0
temp12Rnd2 0.0
p13Rd3 -3.1086244689504383e-15
p29Rd3 -3.552713678800501e-15
temp13Rnd2 -3.1086244689504383e-15
p14Rd3 0.0
p30Rd3 -0.0
temp14Rnd2 -0.0
p15Rd3 0.0
p31Rd3 -0.0
temp15Rnd2 -0.0
temp2 0.0
p0Rd4 1.0000000000000093
p16Rd4 1.0000000000000093
temp0Rnd3 1.0000000000000093
p1Rd4 -9.769962616701378e-15
p17Rd4 -2.3092638912203256e-14
temp1Rnd3 -2.3092638912203256e-14
p2Rd4 -9.769962616701378e-15
p18Rd4 -1.9984014443252818e-15
temp2Rnd3 -9.769962616701378e-15
p3Rd4 3.552713678800501e-15
p19Rd4 3.552713678800501e-15
temp3Rnd3 3.552713678800501e-15
p4Rd4 2.220446049250313e-16
p20Rd4 2.220446049250313e-16
temp4Rnd3 2.220446049250313e-16
p5Rd4 -0.0
p21Rd4 0.0
temp5Rnd3 -0.0
p6Rd4 -0.0
p22Rd4 0.0
temp6Rnd3 0.0
p7Rd4 1.0
p23Rd4 1.0
temp7Rnd3 1.0
p8Rd4 -0.0
p24Rd4 0.0
temp8Rnd3 0.0
p9Rd4 -0.0
p25Rd4 -1.9984014443252818e-15
temp9Rnd3 -1.9984014443252818e-15
p10Rd4 -6.439293542825908e-15
p26Rd4 -6.439293542825908e-15
temp10Rnd3 -6.439293542825908e-15
p11Rd4 -1.9984014443252818e-15
p27Rd4 1.1102230246251565e-16
temp11Rnd3 -2.4424906541753444e-15
p12Rd4 2.220446049250313e-15
p28Rd4 2.220446049250313e-15
temp12Rnd3 2.220446049250313e-15
p13Rd4 2.220446049250313e-15
p29Rd4 2.220446049250313e-15
temp13Rnd3 2.220446049250313e-15
p14Rd4 -0.0
p30Rd4 1.0
temp14Rnd3 1.0
p15Rd4 0.0
p31Rd4 -0.0
temp15Rnd3 0.0
temp3 0.0
p0Rd5 0.9999999999999911
p16Rd5 0.9999999999999942
temp0Rnd4 0.9999999999999911
p1Rd5 -0.0
p17Rd5 -6.439293542825908e-15
temp1Rnd4 -1.4432899320127035e-15
p2Rd5 4.440892098500626e-15
p18Rd5 4.6629367034256575e-15
temp2Rnd4 4.440892098500626e-15
p3Rd5 4.440892098500626e-15
p19Rd5 4.440892098500626e-15
temp3Rnd4 4.440892098500626e-15
p4Rd5 -0.0
p20Rd5 -0.0
temp4Rnd4 -0.0
p5Rd5 -2.220446049250313e-15
p21Rd5 1.0000000000000022
temp5Rnd4 1.0
p6Rd5 9.769962616701378e-15
p22Rd5 9.769962616701378e-15
temp6Rnd4 9.769962616701378e-15
p7Rd5 -0.0
p23Rd5 -1.9984014443252818e-15
temp7Rnd4 -1.9984014443252818e-15
p8Rd5 1.0658141036401503e-14
p24Rd5 3.9968028886505635e-15
temp8Rnd4 3.9968028886505635e-15
p9Rd5 -5.773159728050814e-15
p25Rd5 4.440892098500626e-15
temp9Rnd4 -0.0
p10Rd5 -6.439293542825908e-15
p26Rd5 4.440892098500626e-15
temp10Rnd4 3.3306690738754696e-16
p11Rd5 1.7763568394002505e-15
p27Rd5 -7.494005416219807e-16
temp11Rnd4 1.7763568394002505e-15
p12Rd5 4.440892098500626e-15
p28Rd5 0.9999999999999956
temp12Rnd4 1.0
p13Rd5 4.440892098500626e-15
p29Rd5 4.440892098500626e-15
temp13Rnd4 4.440892098500626e-15
p14Rd5 -0.0
p30Rd5 1.0000000000000093
temp14Rnd4 1.0000000000000093
p15Rd5 0.0
p31Rd5 -2.3092638912203256e-14
temp15Rnd4 -2.3092638912203256e-14
temp4 0.0
p0Rd6 1.0000000000000062
p16Rd6 1.0000000000000016
temp0Rnd5 1.0000000000000062
p1Rd6 -6.439293542825908e-15
p17Rd6 -0.0
temp1Rnd5 -8.326672684688674e-16
p2Rd6 4.884981308350689e-15
p18Rd6 4.884981308350689e-15
temp2Rnd5 4.884981308350689e-15
p3Rd6 4.440892098500626e-15
p19Rd6 0.9999999999999929
temp3Rnd5 1.0
p4Rd6 2.220446049250313e-15
p20Rd6 1.2434497875801753e-14
temp4Rnd5 1.2434497875801753e-14
p5Rd6 1.0000000000000022
p21Rd6 1.0
temp5Rnd5 1.0
p6Rd6 3.9968028886505635e-15
p22Rd6 -0.0
temp6Rnd5 3.9968028886505635e-15
p7Rd6 0.9999999999999751
p23Rd6 0.9999999999999716
temp7Rnd5 0.9999999999999751
p8Rd6 8.881784197001252e-15
p24Rd6 1.3322676295501878e-14
temp8Rnd5 1.3322676295501878e-14
p9Rd6 4.440892098500626e-15
p25Rd6 5.329070518200751e-15
temp9Rnd5 4.440892098500626e-15
p10Rd6 4.440892098500626e-15
p26Rd6 0.9999999999999911
temp10Rnd5 0.9999999999999956
p11Rd6 -1.4988010832439613e-15
p27Rd6 5.773159728050814e-15
temp11Rnd5 4.440892098500626e-15
p12Rd6 1.0
p28Rd6 -9.769962616701378e-15
temp12Rnd5 1.0
p13Rd6 9.769962616701378e-15
p29Rd6 -1.3322676295501878e-14
temp13Rnd5 -1.3322676295501878e-14
p14Rd6 1.0000000000000213
p30Rd6 -2.6645352591003757e-14
temp14Rnd5 0.9999999999999942
p15Rd6 0.0
p31Rd6 -0.0
temp15Rnd5 -3.219646771412954e-15
temp5 -6.661338147750939e-15
